c t mc
c file mc2022_track1_031.cnf
p cnf 777 1888
92 20 0
-92 -20 0
93 23 0
-93 -23 0
94 25 0
-94 -25 0
95 31 0
-95 -31 0
96 30 0
-96 -30 0
97 88 0
-97 -88 0
98 32 0
-98 -32 0
99 34 0
-99 -34 0
100 35 0
-100 -35 0
101 36 0
-101 -36 0
102 87 0
-102 -87 0
103 61 0
-103 -61 0
104 62 0
-104 -62 0
105 59 0
-105 -59 0
106 60 0
-106 -60 0
107 86 0
-107 -86 0
108 14 0
-108 -14 0
109 108 0
-109 -108 0
110 90 0
-110 -90 0
111 12 0
-111 -12 0
112 111 0
-112 -111 0
113 11 0
-113 -11 0
114 113 0
-114 -113 0
115 16 0
-115 -16 0
116 115 0
-116 -115 0
117 116 0
-117 -116 0
118 15 0
-118 -15 0
119 115 0
-119 -115 0
120 7 0
-120 -7 0
121 120 0
-121 -120 0
122 8 0
-122 -8 0
123 122 0
-123 -122 0
124 9 0
-124 -9 0
125 124 0
-125 -124 0
126 10 0
-126 -10 0
127 126 0
-127 -126 0
128 13 0
-128 -13 0
129 128 0
-129 -128 0
130 1 0
-130 -1 0
131 130 0
-131 -130 0
132 2 0
-132 -2 0
133 132 0
-133 -132 0
134 3 0
-134 -3 0
135 134 0
-135 -134 0
136 4 0
-136 -4 0
137 136 0
-137 -136 0
138 5 0
-138 -5 0
139 138 0
-139 -138 0
140 6 0
-140 -6 0
141 140 0
-141 -140 0
142 89 0
-142 -89 0
143 142 0
-143 -142 0
144 17 0
-144 -17 0
145 144 0
-145 -144 0
146 91 0
-146 -91 0
147 146 0
-147 -146 0
-148 85 0
-148 112 0
148 -85 -112 0
149 -97 0
149 -96 0
-149 97 96 0
749 -43 0
749 -44 0
-749 43 44 0
750 -749 0
750 -45 0
-750 749 45 0
150 -750 0
150 -46 0
-150 750 46 0
151 -119 0
151 -150 0
-151 119 150 0
152 -102 0
152 -58 0
-152 102 58 0
153 -105 0
153 -137 0
-153 105 137 0
154 -105 0
154 -139 0
-154 105 139 0
155 -105 0
155 -141 0
-155 105 141 0
156 -63 0
156 -67 0
-156 63 67 0
157 -64 0
157 -68 0
-157 64 68 0
158 -65 0
158 -69 0
-158 65 69 0
159 -70 0
159 -75 0
-159 70 75 0
160 -71 0
160 -76 0
-160 71 76 0
161 -72 0
161 -77 0
-161 72 77 0
162 -73 0
162 -78 0
-162 73 78 0
163 -107 0
163 -106 0
-163 107 106 0
164 -112 0
164 -83 0
-164 112 83 0
165 -112 0
165 -84 0
-165 112 84 0
166 -112 0
166 -85 0
-166 112 85 0
167 -114 0
167 -107 0
-167 114 107 0
168 -114 0
168 -102 0
-168 114 102 0
169 -114 0
169 -97 0
-169 114 97 0
-752 43 0
-752 44 0
752 -43 -44 0
-753 752 0
-753 45 0
753 -752 -45 0
-751 753 0
-751 46 0
751 -753 -46 0
170 751 0
-170 -751 0
171 18 0
171 151 0
-171 -18 -151 0
172 63 0
172 67 0
-172 -63 -67 0
173 64 0
173 68 0
-173 -64 -68 0
174 65 0
174 69 0
-174 -65 -69 0
175 70 0
175 75 0
-175 -70 -75 0
176 71 0
176 76 0
-176 -71 -76 0
177 72 0
177 77 0
-177 -72 -77 0
178 73 0
178 78 0
-178 -73 -78 0
755 -69 0
755 -68 0
-755 69 68 0
754 -755 0
754 -67 0
-754 755 67 0
179 754 0
-179 -754 0
757 -78 0
757 -77 0
-757 78 77 0
758 -757 0
758 -76 0
-758 757 76 0
756 -758 0
756 -75 0
-756 758 75 0
180 756 0
-180 -756 0
-181 -90 0
-181 -112 0
181 90 112 0
182 118 0
-182 -118 0
183 107 0
-183 -107 0
184 107 0
-184 -107 0
185 107 0
-185 -107 0
186 107 0
-186 -107 0
187 107 0
-187 -107 0
188 107 0
-188 -107 0
189 107 0
-189 -107 0
190 107 0
-190 -107 0
191 107 0
-191 -107 0
192 107 0
-192 -107 0
193 118 0
-193 -118 0
194 118 0
-194 -118 0
195 109 0
-195 -109 0
196 118 0
-196 -118 0
197 118 0
-197 -118 0
198 118 0
-198 -118 0
199 118 0
-199 -118 0
200 112 0
-200 -112 0
201 118 0
-201 -118 0
202 112 0
-202 -112 0
203 118 0
-203 -118 0
204 112 0
-204 -112 0
205 118 0
-205 -118 0
206 114 0
-206 -114 0
207 114 0
-207 -114 0
208 114 0
-208 -114 0
209 97 0
-209 -97 0
210 118 0
-210 -118 0
211 118 0
-211 -118 0
212 118 0
-212 -118 0
213 118 0
-213 -118 0
214 118 0
-214 -118 0
215 118 0
-215 -118 0
216 118 0
-216 -118 0
217 118 0
-217 -118 0
218 118 0
-218 -118 0
219 118 0
-219 -118 0
220 118 0
-220 -118 0
221 118 0
-221 -118 0
222 118 0
-222 -118 0
223 118 0
-223 -118 0
224 118 0
-224 -118 0
225 118 0
-225 -118 0
226 102 0
-226 -102 0
227 102 0
-227 -102 0
228 118 0
-228 -118 0
229 107 0
-229 -107 0
-230 198 0
-230 95 0
230 -198 -95 0
-231 119 0
-231 171 0
231 -119 -171 0
-232 194 0
-232 109 0
232 -194 -109 0
-233 206 0
-233 167 0
233 -206 -167 0
234 -209 0
234 -31 0
-234 209 31 0
235 -119 0
235 -170 0
-235 119 170 0
236 -227 0
236 -55 0
-236 227 55 0
237 -229 0
237 -31 0
-237 229 31 0
238 118 0
-238 -118 0
239 118 0
-239 -118 0
240 118 0
-240 -118 0
241 -66 0
241 -179 0
-241 66 179 0
242 118 0
-242 -118 0
243 118 0
-243 -118 0
244 118 0
-244 -118 0
245 -74 0
245 -180 0
-245 74 180 0
246 -183 0
246 -121 0
-246 183 121 0
247 118 0
-247 -118 0
248 -184 0
248 -125 0
-248 184 125 0
249 -185 0
249 -123 0
-249 185 123 0
250 -186 0
250 -127 0
-250 186 127 0
251 -187 0
251 -131 0
-251 187 131 0
252 -188 0
252 -133 0
-252 188 133 0
253 -189 0
253 -135 0
-253 189 135 0
254 -190 0
254 -137 0
-254 190 137 0
255 -191 0
255 -139 0
-255 191 139 0
256 -192 0
256 -141 0
-256 192 141 0
257 -200 0
257 -110 0
-257 200 110 0
258 -202 0
258 -83 0
-258 202 83 0
259 -204 0
259 -84 0
-259 204 84 0
260 -207 0
260 -107 0
-260 207 107 0
261 118 0
-261 -118 0
262 -208 0
262 -102 0
-262 208 102 0
263 -118 0
263 -195 0
-263 118 195 0
264 171 0
264 235 0
-264 -171 -235 0
265 156 0
265 172 0
-265 -156 -172 0
266 157 0
266 173 0
-266 -157 -173 0
267 158 0
267 174 0
-267 -158 -174 0
268 105 0
-268 -105 0
269 105 0
-269 -105 0
270 66 0
270 179 0
-270 -66 -179 0
271 159 0
271 175 0
-271 -159 -175 0
272 160 0
272 176 0
-272 -160 -176 0
273 161 0
273 177 0
-273 -161 -177 0
274 162 0
274 178 0
-274 -162 -178 0
275 105 0
-275 -105 0
276 118 0
-276 -118 0
277 74 0
277 180 0
-277 -74 -180 0
-278 -82 0
-278 -195 0
278 82 195 0
-279 -278 0
-279 -233 0
279 278 233 0
-280 -181 0
-280 -148 0
280 181 148 0
-281 234 0
-281 149 0
281 -234 -149 0
-282 119 0
-282 264 0
282 -119 -264 0
-283 236 0
-283 152 0
283 -236 -152 0
-284 248 0
-284 163 0
284 -248 -163 0
-285 257 0
-285 164 0
285 -257 -164 0
-286 258 0
-286 165 0
286 -258 -165 0
-287 259 0
-287 166 0
287 -259 -166 0
-288 260 0
-288 168 0
288 -260 -168 0
-289 262 0
-289 169 0
289 -262 -169 0
-290 214 0
-290 280 0
290 -214 -280 0
291 -107 0
291 -283 0
-291 107 283 0
292 -268 0
292 -131 0
-292 268 131 0
293 -269 0
293 -133 0
-293 269 133 0
294 -275 0
294 -135 0
-294 275 135 0
295 264 0
-295 -264 0
296 -284 0
296 -81 0
-296 284 81 0
297 284 0
-297 -284 0
298 -263 0
298 -279 0
-298 263 279 0
299 241 0
299 270 0
-299 -241 -270 0
-760 273 0
-760 272 0
760 -273 -272 0
-759 760 0
-759 271 0
759 -760 -271 0
300 759 0
-300 -759 0
301 245 0
301 277 0
-301 -245 -277 0
-762 299 0
-762 267 0
762 -299 -267 0
-763 762 0
-763 266 0
763 -762 -266 0
-761 763 0
-761 265 0
761 -763 -265 0
302 761 0
-302 -761 0
-303 -19 0
-303 -282 0
303 19 282 0
-304 -303 0
-304 -231 0
304 303 231 0
-305 -278 0
-305 -288 0
305 278 288 0
-306 -278 0
-306 -289 0
306 278 289 0
-307 237 0
-307 291 0
307 -237 -291 0
-308 292 0
-308 153 0
308 -292 -153 0
-309 293 0
-309 154 0
309 -293 -154 0
-310 294 0
-310 155 0
310 -294 -155 0
-311 199 0
-311 285 0
311 -199 -285 0
-312 201 0
-312 286 0
312 -201 -286 0
-313 203 0
-313 287 0
313 -203 -287 0
314 295 0
-314 -295 0
315 304 0
-315 -304 0
316 -80 0
316 -297 0
-316 80 297 0
317 302 0
-317 -302 0
318 315 0
-318 -315 0
319 -263 0
319 -305 0
-319 263 305 0
320 -263 0
320 -306 0
-320 263 306 0
321 302 0
321 261 0
-321 -302 -261 0
322 301 0
322 274 0
-322 -301 -274 0
323 316 0
323 296 0
-323 -316 -296 0
-324 -304 0
-324 -170 0
324 304 170 0
-325 -60 0
-325 -317 0
325 60 317 0
-326 -62 0
-326 -317 0
326 62 317 0
-327 105 0
-327 317 0
327 -105 -317 0
-328 103 0
-328 317 0
328 -103 -317 0
-329 321 0
-329 86 0
329 -321 -86 0
-330 321 0
-330 87 0
330 -321 -87 0
-331 107 0
-331 321 0
331 -107 -321 0
-332 38 0
-332 324 0
332 -38 -324 0
333 -61 0
333 -317 0
-333 61 317 0
334 -118 0
334 -329 0
-334 118 329 0
335 -334 0
335 -69 0
-335 334 69 0
336 -322 0
336 -300 0
-336 322 300 0
337 323 0
-337 -323 0
338 -118 0
338 -330 0
-338 118 330 0
339 -338 0
339 -81 0
-339 338 81 0
340 338 0
-340 -338 0
341 -107 0
341 -321 0
-341 107 321 0
342 -107 0
342 -321 0
-342 107 321 0
343 338 0
-343 -338 0
344 338 0
-344 -338 0
345 321 0
-345 -321 0
346 321 0
-346 -321 0
347 321 0
-347 -321 0
348 321 0
-348 -321 0
349 337 0
349 70 0
-349 -337 -70 0
350 337 0
350 71 0
-350 -337 -71 0
351 337 0
351 72 0
-351 -337 -72 0
352 337 0
352 73 0
-352 -337 -73 0
353 337 0
353 74 0
-353 -337 -74 0
354 334 0
-354 -334 0
355 334 0
-355 -334 0
-356 249 0
-356 341 0
356 -249 -341 0
357 334 0
-357 -334 0
-358 -38 0
-358 -324 0
358 38 324 0
-359 38 0
-359 324 0
359 -38 -324 0
-360 -325 0
-360 -327 0
360 325 327 0
-361 39 0
-361 359 0
361 -39 -359 0
-362 -326 0
-362 -328 0
362 326 328 0
-363 40 0
-363 361 0
363 -40 -361 0
-364 242 0
-364 360 0
364 -242 -360 0
-365 41 0
-365 363 0
365 -41 -363 0
-366 244 0
-366 333 0
366 -244 -333 0
-367 247 0
-367 362 0
367 -247 -362 0
-368 250 0
-368 342 0
368 -250 -342 0
369 338 0
-369 -338 0
370 368 0
-370 -368 0
371 356 0
-371 -356 0
372 356 0
-372 -356 0
373 -336 0
373 -79 0
-373 336 79 0
374 -334 0
374 -67 0
-374 334 67 0
375 -354 0
375 -308 0
-375 354 308 0
376 -334 0
376 -68 0
-376 334 68 0
377 -355 0
377 -309 0
-377 355 309 0
378 -357 0
378 -310 0
-378 357 310 0
379 338 0
-379 -338 0
380 356 0
-380 -356 0
381 356 0
-381 -356 0
382 356 0
-382 -356 0
383 -338 0
383 -75 0
-383 338 75 0
384 -344 0
384 -121 0
-384 344 121 0
385 -338 0
385 -76 0
-385 338 76 0
386 -379 0
386 -123 0
-386 379 123 0
387 -338 0
387 -77 0
-387 338 77 0
388 -338 0
388 -78 0
-388 338 78 0
389 -369 0
389 -127 0
-389 369 127 0
-390 39 0
-390 359 0
390 -39 -359 0
391 -338 0
391 -80 0
-391 338 80 0
392 -340 0
392 -114 0
-392 340 114 0
393 -343 0
393 -112 0
-393 343 112 0
394 338 0
-394 -338 0
395 -107 0
395 -349 0
-395 107 349 0
396 -107 0
396 -350 0
-396 107 350 0
397 -107 0
397 -351 0
-397 107 351 0
398 -107 0
398 -352 0
-398 107 352 0
399 -107 0
399 -353 0
-399 107 353 0
-400 40 0
-400 361 0
400 -40 -361 0
401 -107 0
401 -373 0
-401 107 373 0
402 373 0
-402 -373 0
-403 251 0
-403 395 0
403 -251 -395 0
-404 252 0
-404 396 0
404 -252 -396 0
-405 41 0
-405 363 0
405 -41 -363 0
-406 253 0
-406 397 0
406 -253 -397 0
-407 254 0
-407 398 0
407 -254 -398 0
-408 255 0
-408 399 0
408 -255 -399 0
409 407 0
409 41 0
-409 -407 -41 0
410 408 0
410 42 0
-410 -408 -42 0
411 403 0
411 38 0
-411 -403 -38 0
412 404 0
412 39 0
-412 -404 -39 0
413 406 0
413 40 0
-413 -406 -40 0
414 368 0
-414 -368 0
415 368 0
-415 -368 0
-416 42 0
-416 365 0
416 -42 -365 0
-417 -332 0
-417 -358 0
417 332 358 0
-418 -39 0
-418 -359 0
418 39 359 0
-419 -40 0
-419 -361 0
419 40 361 0
-420 -41 0
-420 -363 0
420 41 363 0
-421 -42 0
-421 -365 0
421 42 365 0
422 368 0
-422 -368 0
423 368 0
-423 -368 0
424 368 0
-424 -368 0
-425 392 0
-425 391 0
425 -392 -391 0
-426 393 0
-426 339 0
426 -393 -339 0
-427 256 0
-427 401 0
427 -256 -401 0
-428 371 0
-428 417 0
428 -371 -417 0
429 -38 0
429 -403 0
-429 38 403 0
430 -39 0
430 -404 0
-430 39 404 0
431 -40 0
431 -406 0
-431 40 406 0
432 -41 0
432 -407 0
-432 41 407 0
433 -42 0
433 -408 0
-433 42 408 0
434 -403 0
434 -38 0
-434 403 38 0
435 -404 0
435 -39 0
-435 404 39 0
436 -406 0
436 -40 0
-436 406 40 0
437 -407 0
437 -41 0
-437 407 41 0
438 -408 0
438 -42 0
-438 408 42 0
439 -394 0
439 -125 0
-439 394 125 0
-764 145 0
-764 104 0
764 -145 -104 0
-440 764 0
-440 402 0
440 -764 -402 0
441 -107 0
441 -440 0
-441 107 440 0
-442 375 0
-442 374 0
442 -375 -374 0
-443 377 0
-443 376 0
443 -377 -376 0
-444 378 0
-444 335 0
444 -378 -335 0
445 434 0
445 411 0
-445 -434 -411 0
446 435 0
446 412 0
-446 -435 -412 0
447 436 0
447 413 0
-447 -436 -413 0
448 437 0
448 409 0
-448 -437 -409 0
449 438 0
449 410 0
-449 -438 -410 0
-450 -390 0
-450 -418 0
450 390 418 0
-451 -400 0
-451 -419 0
451 400 419 0
-452 -405 0
-452 -420 0
452 405 420 0
-453 -416 0
-453 -421 0
453 416 421 0
-454 384 0
-454 383 0
454 -384 -383 0
766 -447 0
766 -448 0
-766 447 448 0
765 -766 0
765 -449 0
-765 766 449 0
455 765 0
-455 -765 0
-456 -445 0
-456 -446 0
456 445 446 0
-457 386 0
-457 385 0
457 -386 -385 0
-458 439 0
-458 387 0
458 -439 -387 0
-459 389 0
-459 388 0
459 -389 -388 0
-460 246 0
-460 441 0
460 -246 -441 0
461 -107 0
461 -440 0
-461 107 440 0
-462 445 0
-462 429 0
462 -445 -429 0
-463 372 0
-463 450 0
463 -372 -450 0
464 461 0
-464 -461 0
465 461 0
-465 -461 0
-466 380 0
-466 451 0
466 -380 -451 0
467 461 0
-467 -461 0
-468 381 0
-468 452 0
468 -381 -452 0
469 307 0
469 460 0
-469 -307 -460 0
470 456 0
470 455 0
-470 -456 -455 0
-471 382 0
-471 453 0
471 -382 -453 0
472 -461 0
472 -34 0
-472 461 34 0
473 -465 0
473 -281 0
-473 465 281 0
-474 473 0
-474 472 0
474 -473 -472 0
475 470 0
-475 -470 0
476 427 0
476 474 0
-476 -427 -474 0
477 -462 0
477 -446 0
-477 462 446 0
478 79 0
478 474 0
-478 -79 -474 0
-479 -336 0
-479 -474 0
479 336 474 0
-480 -323 0
-480 -478 0
480 323 478 0
-481 477 0
-481 430 0
481 -477 -430 0
482 479 0
-482 -479 0
483 -481 0
483 -447 0
-483 481 447 0
484 -59 0
484 -474 0
-484 59 474 0
-485 240 0
-485 484 0
485 -240 -484 0
-486 483 0
-486 431 0
486 -483 -431 0
487 -479 0
487 -79 0
-487 479 79 0
-488 215 0
-488 480 0
488 -215 -480 0
-489 482 0
-489 487 0
489 -482 -487 0
490 -486 0
490 -448 0
-490 486 448 0
-491 490 0
-491 432 0
491 -490 -432 0
492 -491 0
492 -449 0
-492 491 449 0
493 492 0
493 433 0
-493 -492 -433 0
494 -92 0
494 -493 0
-494 92 493 0
495 92 0
495 493 0
-495 -92 -493 0
496 493 0
496 470 0
-496 -493 -470 0
-497 92 0
-497 493 0
497 -92 -493 0
-498 21 0
-498 497 0
498 -21 -497 0
-499 22 0
-499 498 0
499 -22 -498 0
-500 93 0
-500 499 0
500 -93 -499 0
-501 -21 0
-501 -497 0
501 21 497 0
-502 -22 0
-502 -498 0
502 22 498 0
-503 -24 0
-503 -500 0
503 24 500 0
504 -93 0
504 -499 0
-504 93 499 0
-505 24 0
-505 500 0
505 -24 -500 0
506 494 0
506 495 0
-506 -494 -495 0
507 93 0
507 499 0
-507 -93 -499 0
508 -505 0
508 -97 0
-508 505 97 0
-768 474 0
-768 496 0
768 -474 -496 0
-767 768 0
-767 475 0
767 -768 -475 0
509 767 0
-509 -767 0
-770 476 0
-770 509 0
770 -476 -509 0
-769 770 0
-769 493 0
769 -770 -493 0
510 769 0
-510 -769 0
-511 205 0
-511 506 0
511 -205 -506 0
-512 21 0
-512 497 0
512 -21 -497 0
-513 22 0
-513 498 0
513 -22 -498 0
-514 24 0
-514 500 0
514 -24 -500 0
-515 110 0
-515 505 0
515 -110 -505 0
-516 -512 0
-516 -501 0
516 512 501 0
-517 -513 0
-517 -502 0
517 513 502 0
-518 -514 0
-518 -503 0
518 514 503 0
519 -94 0
519 -508 0
-519 94 508 0
520 -510 0
520 -460 0
-520 510 460 0
-521 94 0
-521 508 0
521 -94 -508 0
522 504 0
522 507 0
-522 -504 -507 0
523 94 0
523 508 0
-523 -94 -508 0
524 520 0
524 469 0
-524 -520 -469 0
-525 26 0
-525 521 0
525 -26 -521 0
-526 27 0
-526 525 0
526 -27 -525 0
-527 28 0
-527 526 0
527 -28 -526 0
-528 211 0
-528 516 0
528 -211 -516 0
-529 217 0
-529 517 0
529 -217 -517 0
-530 219 0
-530 522 0
530 -219 -522 0
-531 228 0
-531 518 0
531 -228 -518 0
-532 -26 0
-532 -521 0
532 26 521 0
-533 -27 0
-533 -525 0
533 27 525 0
-534 -28 0
-534 -526 0
534 28 526 0
-535 -29 0
-535 -527 0
535 29 527 0
-536 213 0
-536 524 0
536 -213 -524 0
-537 29 0
-537 527 0
537 -29 -527 0
-538 26 0
-538 521 0
538 -26 -521 0
-539 27 0
-539 525 0
539 -27 -525 0
540 -96 0
540 -537 0
-540 96 537 0
-541 28 0
-541 526 0
541 -28 -526 0
-542 96 0
-542 537 0
542 -96 -537 0
543 519 0
543 523 0
-543 -519 -523 0
544 96 0
544 537 0
-544 -96 -537 0
-545 29 0
-545 527 0
545 -29 -527 0
-546 243 0
-546 543 0
546 -243 -543 0
-547 30 0
-547 537 0
547 -30 -537 0
-548 -538 0
-548 -532 0
548 538 532 0
-549 -539 0
-549 -533 0
549 539 533 0
-550 -541 0
-550 -534 0
550 541 534 0
-551 -545 0
-551 -535 0
551 545 535 0
-552 83 0
-552 542 0
552 -83 -542 0
-553 182 0
-553 549 0
553 -182 -549 0
554 -547 0
554 -97 0
-554 547 97 0
-555 196 0
-555 551 0
555 -196 -551 0
556 -467 0
556 -554 0
-556 467 554 0
557 540 0
557 544 0
-557 -540 -544 0
-558 193 0
-558 550 0
558 -193 -550 0
-559 276 0
-559 548 0
559 -276 -548 0
560 -542 0
560 -97 0
-560 542 97 0
-561 -50 0
-561 -560 0
561 50 560 0
-562 50 0
-562 560 0
562 -50 -560 0
-563 51 0
-563 562 0
563 -51 -562 0
-564 100 0
-564 560 0
564 -100 -560 0
-565 101 0
-565 564 0
565 -101 -564 0
566 -100 0
566 -560 0
-566 100 560 0
567 -101 0
567 -564 0
-567 101 564 0
-568 197 0
-568 557 0
568 -197 -557 0
569 100 0
569 560 0
-569 -100 -560 0
570 101 0
570 564 0
-570 -101 -564 0
-571 37 0
-571 565 0
571 -37 -565 0
572 -464 0
572 -560 0
-572 464 560 0
-771 52 0
-771 50 0
771 -52 -50 0
-573 771 0
-573 560 0
573 -771 -560 0
-574 50 0
-574 560 0
574 -50 -560 0
575 -102 0
575 -573 0
-575 102 573 0
576 -571 0
576 -102 0
-576 571 102 0
-577 -37 0
-577 -565 0
577 37 565 0
-578 51 0
-578 562 0
578 -51 -562 0
579 -575 0
579 -45 0
-579 575 45 0
580 -575 0
580 -46 0
-580 575 46 0
-581 37 0
-581 565 0
581 -37 -565 0
-582 -574 0
-582 -561 0
582 574 561 0
-583 -51 0
-583 -562 0
583 51 562 0
-584 -52 0
-584 -563 0
584 52 563 0
-585 52 0
-585 563 0
585 -52 -563 0
586 -575 0
586 -44 0
-586 575 44 0
587 575 0
-587 -575 0
-588 84 0
-588 571 0
588 -84 -571 0
589 98 0
589 576 0
-589 -98 -576 0
590 566 0
590 569 0
-590 -566 -569 0
591 567 0
591 570 0
-591 -567 -570 0
592 -573 0
592 -118 0
-592 573 118 0
593 575 0
-593 -575 0
-594 98 0
-594 576 0
594 -98 -576 0
595 -575 0
595 -43 0
-595 575 43 0
-596 33 0
-596 594 0
596 -33 -594 0
597 -587 0
597 -45 0
-597 587 45 0
598 592 0
-598 -592 0
-599 218 0
-599 590 0
599 -218 -590 0
-600 220 0
-600 591 0
600 -220 -591 0
601 592 0
-601 -592 0
602 575 0
-602 -575 0
603 575 0
-603 -575 0
-604 596 0
-604 99 0
604 -596 -99 0
605 -603 0
605 -43 0
-605 603 43 0
-606 33 0
-606 594 0
606 -33 -594 0
-607 -33 0
-607 -594 0
607 33 594 0
-608 -34 0
-608 -596 0
608 34 596 0
-609 -581 0
-609 -577 0
609 581 577 0
610 -98 0
610 -576 0
-610 98 576 0
611 592 0
-611 -592 0
612 -593 0
612 -129 0
-612 593 129 0
-613 221 0
-613 609 0
613 -221 -609 0
-614 -578 0
-614 -583 0
614 578 583 0
-615 -585 0
-615 -584 0
615 585 584 0
-616 34 0
-616 596 0
616 -34 -596 0
-617 611 0
-617 582 0
617 -611 -582 0
-618 598 0
-618 614 0
618 -598 -614 0
619 -602 0
619 -44 0
-619 602 44 0
-620 34 0
-620 596 0
620 -34 -596 0
-621 612 0
-621 595 0
621 -612 -595 0
622 -461 0
622 -604 0
-622 461 604 0
623 -461 0
623 -620 0
-623 461 620 0
-624 619 0
-624 579 0
624 -619 -579 0
-625 597 0
-625 580 0
625 -597 -580 0
626 610 0
626 589 0
-626 -610 -589 0
-627 224 0
-627 624 0
627 -224 -624 0
-628 -606 0
-628 -607 0
628 606 607 0
-629 -616 0
-629 -608 0
629 616 608 0
-630 605 0
-630 586 0
630 -605 -586 0
-631 601 0
-631 615 0
631 -601 -615 0
-632 222 0
-632 621 0
632 -222 -621 0
-633 223 0
-633 630 0
633 -223 -630 0
-634 572 0
-634 623 0
634 -572 -623 0
-635 556 0
-635 622 0
635 -556 -622 0
-636 54 0
-636 634 0
636 -54 -634 0
-637 225 0
-637 625 0
637 -225 -625 0
-638 216 0
-638 629 0
638 -216 -629 0
-639 55 0
-639 636 0
639 -55 -636 0
-640 53 0
-640 634 0
640 -53 -634 0
-641 212 0
-641 628 0
641 -212 -628 0
642 -639 0
642 -102 0
-642 639 102 0
-643 55 0
-643 636 0
643 -55 -636 0
-644 53 0
-644 634 0
644 -53 -634 0
-645 49 0
-645 642 0
645 -49 -642 0
646 -645 0
646 -118 0
-646 645 118 0
647 646 0
-647 -646 0
-648 -47 0
-648 -642 0
648 47 642 0
649 -636 0
649 -118 0
-649 636 118 0
-650 336 0
-650 635 0
650 -336 -635 0
-651 -53 0
-651 -634 0
651 53 634 0
-652 -54 0
-652 -640 0
652 54 640 0
-653 -55 0
-653 -636 0
653 55 636 0
-654 -56 0
-654 -645 0
654 56 645 0
-655 47 0
-655 642 0
655 -47 -642 0
-656 210 0
-656 626 0
656 -210 -626 0
-657 -70 0
-657 -650 0
657 70 650 0
-658 54 0
-658 640 0
658 -54 -640 0
659 649 0
-659 -649 0
660 -650 0
660 -489 0
-660 650 489 0
-661 47 0
-661 642 0
661 -47 -642 0
-662 48 0
-662 661 0
662 -48 -661 0
-663 48 0
-663 661 0
663 -48 -661 0
-664 70 0
-664 650 0
664 -70 -650 0
-665 71 0
-665 664 0
665 -71 -664 0
-666 57 0
-666 645 0
666 -57 -645 0
-667 72 0
-667 665 0
667 -72 -665 0
-668 370 0
-668 660 0
668 -370 -660 0
-669 73 0
-669 667 0
669 -73 -667 0
670 646 0
-670 -646 0
671 646 0
-671 -646 0
672 -666 0
672 -118 0
-672 666 118 0
-673 71 0
-673 664 0
673 -71 -664 0
-674 -655 0
-674 -648 0
674 655 648 0
675 -226 0
675 -639 0
-675 226 639 0
-676 -48 0
-676 -661 0
676 48 661 0
-677 -49 0
-677 -662 0
677 49 662 0
-678 671 0
-678 674 0
678 -671 -674 0
-679 70 0
-679 650 0
679 -70 -650 0
-680 73 0
-680 667 0
680 -73 -667 0
-681 -644 0
-681 -651 0
681 644 651 0
-682 -658 0
-682 -652 0
682 658 652 0
-683 49 0
-683 662 0
683 -49 -662 0
-684 -643 0
-684 -653 0
684 643 653 0
-685 74 0
-685 669 0
685 -74 -669 0
-686 56 0
-686 645 0
686 -56 -645 0
-687 -58 0
-687 -666 0
687 58 666 0
-688 56 0
-688 645 0
688 -56 -645 0
-689 72 0
-689 665 0
689 -72 -665 0
-690 -679 0
-690 -657 0
690 679 657 0
-691 -71 0
-691 -664 0
691 71 664 0
-692 -72 0
-692 -665 0
692 72 665 0
-693 -73 0
-693 -667 0
693 73 667 0
-694 -74 0
-694 -669 0
694 74 669 0
-695 58 0
-695 666 0
695 -58 -666 0
-696 659 0
-696 682 0
696 -659 -682 0
697 649 0
-697 -649 0
-698 238 0
-698 684 0
698 -238 -684 0
699 672 0
-699 -672 0
700 672 0
-700 -672 0
-701 -686 0
-701 -654 0
701 686 654 0
-702 -57 0
-702 -688 0
702 57 688 0
-703 -695 0
-703 -687 0
703 695 687 0
-704 58 0
-704 666 0
704 -58 -666 0
-705 697 0
-705 681 0
705 -697 -681 0
-706 700 0
-706 701 0
706 -700 -701 0
707 -102 0
707 -704 0
-707 102 704 0
-708 -673 0
-708 -691 0
708 673 691 0
-709 -689 0
-709 -692 0
709 689 692 0
-710 57 0
-710 688 0
710 -57 -688 0
-711 -680 0
-711 -693 0
711 680 693 0
-712 675 0
-712 707 0
712 -675 -707 0
-713 -685 0
-713 -694 0
713 685 694 0
-714 -663 0
-714 -676 0
714 663 676 0
-715 414 0
-715 690 0
715 -414 -690 0
-716 -683 0
-716 -677 0
716 683 677 0
717 -107 0
717 -712 0
-717 107 712 0
-718 647 0
-718 714 0
718 -647 -714 0
-719 424 0
-719 713 0
719 -424 -713 0
-720 -63 0
-720 -717 0
720 63 717 0
-721 239 0
-721 703 0
721 -239 -703 0
-722 423 0
-722 711 0
722 -423 -711 0
-723 63 0
-723 717 0
723 -63 -717 0
-724 -710 0
-724 -702 0
724 710 702 0
-725 422 0
-725 709 0
725 -422 -709 0
-726 670 0
-726 716 0
726 -670 -716 0
-727 415 0
-727 708 0
727 -415 -708 0
-728 85 0
-728 704 0
728 -85 -704 0
-729 63 0
-729 717 0
729 -63 -717 0
-730 64 0
-730 723 0
730 -64 -723 0
773 -728 0
773 -588 0
-773 728 588 0
774 -773 0
774 -552 0
-774 773 552 0
772 -774 0
772 -515 0
-772 774 515 0
731 772 0
-731 -772 0
-732 107 0
-732 731 0
732 -107 -731 0
-733 64 0
-733 723 0
733 -64 -723 0
-734 -64 0
-734 -723 0
734 64 723 0
-735 -65 0
-735 -733 0
735 65 733 0
-736 -729 0
-736 -720 0
736 729 720 0
-737 699 0
-737 724 0
737 -699 -724 0
-738 -730 0
-738 -734 0
738 730 734 0
-739 65 0
-739 733 0
739 -65 -733 0
-740 66 0
-740 739 0
740 -66 -739 0
-741 65 0
-741 733 0
741 -65 -733 0
-742 346 0
-742 738 0
742 -346 -738 0
-743 -66 0
-743 -739 0
743 66 739 0
-744 345 0
-744 736 0
744 -345 -736 0
-745 -741 0
-745 -735 0
745 741 735 0
-746 -740 0
-746 -743 0
746 740 743 0
-747 347 0
-747 745 0
747 -347 -745 0
-748 348 0
-748 746 0
748 -348 -746 0
-775 320 331 0
-775 -320 -331 0
775 -320 331 0
775 320 -331 0
775 0
-776 320 331 0
-776 -320 -331 0
776 -320 331 0
776 320 -331 0
776 0
-777 320 331 0
-777 -320 -331 0
777 -320 331 0
777 320 -331 0
777 0
